(set-logic ALL)
(set-option :produce-models true)
(declare-sort BoundSet 0)
(declare-sort UnboundSet 0)
(set-option :finite-model-find true)
(declare-fun IsUnusual (BoundSet) Bool)
(declare-fun IsIgnored (BoundSet) Bool)
(declare-fun IsSensational (BoundSet) Bool)
(assert (not (=> (exists ((a BoundSet)) (exists ((c BoundSet)) (exists ((b BoundSet)) (and (IsUnusual a) (and (IsIgnored b) (IsIgnored c)))))) (exists ((a BoundSet)) (and (IsUnusual a) (IsSensational a))))))
(check-sat)
(get-model)